17	4	3
14	15	15	15	23	20	15	
0	0	0	0	0	1	2	9	9	4	4	3	2	3	4
7	1	6	4	9	3	1	9	2	4	4	3	10	11	17
4	9	1	3	9	1	6	4	7	1	4	3	5	6	8
1	3	4	8	5	1	7	5	8	3	3	3	11	12	13
5	5	7	4	8	6	1	5	4	3	6	2	7	17
175	2	9	1	7	10	3	8	8	1	2	2	10	17
225	1	5	6	7	1	4	2	10	5	6	2	12	17
200	8	6	8	3	3	6	2	7	3	2	3	9	14	15
125	2	9	2	10	1	3	9	6	1	1	3	10	16	17
150	9	5	10	7	8	6	2	3	10	4	1	17
250	5	9	3	1	9	9	6	7	7	7	1	17
50	7	5	5	8	8	8	10	10	8	4	2	14	17
10	4	1	8	3	5	1	10	7	7	2	2	14	17
4	1	1	9	7	9	8	5	7	3	5	1	17
7	10	8	6	5	8	1	10	9	3	10	1	17
5	1	7	6	10	2	2	9	8	8	5	2	17	17
0	0	0	0	0	4	6	3	4	5	1	0
